784 1512
1 2 5
1 29 5
2 3 4
2 30 4
3 4 3
3 31 3
4 5 1
4 32 4
5 6 3
5 33 5
6 7 1
6 34 4
7 8 5
7 35 3
8 9 3
8 36 4
9 10 5
9 37 4
10 11 5
10 38 2
11 12 1
11 39 1
12 13 1
12 40 3
13 14 4
13 41 1
14 15 5
14 42 1
15 16 3
15 43 2
16 17 5
16 44 1
17 18 5
17 45 5
18 19 1
18 46 5
19 20 3
19 47 1
20 21 3
20 48 2
21 22 4
21 49 3
22 23 1
22 50 5
23 24 4
23 51 1
24 25 1
24 52 5
25 26 4
25 53 5
26 27 2
26 54 5
27 28 5
27 55 2
28 56 5
29 30 3
29 57 5
30 31 2
30 58 5
31 32 2
31 59 1
32 33 1
32 60 3
33 34 2
33 61 5
34 35 5
34 62 2
35 36 4
35 63 1
36 37 1
36 64 5
37 38 4
37 65 2
38 39 2
38 66 5
39 40 2
39 67 2
40 41 5
40 68 2
41 42 3
41 69 3
42 43 3
42 70 4
43 44 1
43 71 3
44 45 2
44 72 5
45 46 4
45 73 1
46 47 4
46 74 2
47 48 4
47 75 4
48 49 2
48 76 1
49 50 5
49 77 2
50 51 1
50 78 5
51 52 1
51 79 4
52 53 3
52 80 5
53 54 5
53 81 1
54 55 5
54 82 4
55 56 3
55 83 5
56 84 4
57 58 4
57 85 2
58 59 4
58 86 4
59 60 1
59 87 4
60 61 4
60 88 5
61 62 5
61 89 3
62 63 2
62 90 5
63 64 2
63 91 3
64 65 1
64 92 1
65 66 4
65 93 4
66 67 4
66 94 5
67 68 2
67 95 5
68 69 2
68 96 5
69 70 2
69 97 5
70 71 1
70 98 4
71 72 3
71 99 5
72 73 3
72 100 4
73 74 3
73 101 2
74 75 5
74 102 4
75 76 4
75 103 5
76 77 4
76 104 3
77 78 3
77 105 4
78 79 4
78 106 4
79 80 3
79 107 4
80 81 1
80 108 2
81 82 2
81 109 3
82 83 4
82 110 1
83 84 2
83 111 2
84 112 3
85 86 5
85 113 4
86 87 1
86 114 5
87 88 2
87 115 2
88 89 2
88 116 1
89 90 2
89 117 4
90 91 4
90 118 1
91 92 1
91 119 5
92 93 4
92 120 3
93 94 4
93 121 4
94 95 1
94 122 5
95 96 1
95 123 5
96 97 5
96 124 1
97 98 2
97 125 4
98 99 3
98 126 1
99 100 3
99 127 4
100 101 5
100 128 5
101 102 4
101 129 4
102 103 5
102 130 2
103 104 5
103 131 1
104 105 5
104 132 2
105 106 5
105 133 3
106 107 1
106 134 1
107 108 4
107 135 3
108 109 2
108 136 5
109 110 2
109 137 2
110 111 1
110 138 5
111 112 3
111 139 5
112 140 5
113 114 1
113 141 5
114 115 3
114 142 5
115 116 1
115 143 3
116 117 3
116 144 1
117 118 1
117 145 3
118 119 5
118 146 3
119 120 5
119 147 3
120 121 2
120 148 5
121 122 4
121 149 2
122 123 1
122 150 3
123 124 2
123 151 2
124 125 4
124 152 1
125 126 5
125 153 3
126 127 2
126 154 2
127 128 1
127 155 5
128 129 3
128 156 3
129 130 3
129 157 2
130 131 4
130 158 2
131 132 2
131 159 1
132 133 5
132 160 1
133 134 3
133 161 4
134 135 3
134 162 5
135 136 5
135 163 1
136 137 2
136 164 3
137 138 3
137 165 2
138 139 1
138 166 1
139 140 1
139 167 4
140 168 2
141 142 4
141 169 2
142 143 5
142 170 3
143 144 5
143 171 3
144 145 4
144 172 5
145 146 3
145 173 3
146 147 3
146 174 5
147 148 2
147 175 2
148 149 2
148 176 5
149 150 4
149 177 3
150 151 3
150 178 3
151 152 4
151 179 5
152 153 4
152 180 5
153 154 5
153 181 2
154 155 2
154 182 3
155 156 1
155 183 4
156 157 3
156 184 3
157 158 1
157 185 3
158 159 5
158 186 4
159 160 3
159 187 4
160 161 3
160 188 1
161 162 3
161 189 1
162 163 5
162 190 3
163 164 4
163 191 5
164 165 2
164 192 4
165 166 2
165 193 1
166 167 5
166 194 3
167 168 5
167 195 1
168 196 1
169 170 1
169 197 5
170 171 5
170 198 1
171 172 4
171 199 4
172 173 5
172 200 5
173 174 1
173 201 1
174 175 2
174 202 2
175 176 2
175 203 5
176 177 5
176 204 1
177 178 5
177 205 1
178 179 4
178 206 2
179 180 4
179 207 1
180 181 5
180 208 5
181 182 3
181 209 1
182 183 1
182 210 4
183 184 3
183 211 4
184 185 1
184 212 5
185 186 3
185 213 2
186 187 5
186 214 1
187 188 5
187 215 1
188 189 4
188 216 1
189 190 4
189 217 4
190 191 3
190 218 5
191 192 2
191 219 4
192 193 4
192 220 4
193 194 2
193 221 3
194 195 1
194 222 2
195 196 2
195 223 5
196 224 1
197 198 1
197 225 5
198 199 3
198 226 4
199 200 1
199 227 5
200 201 4
200 228 5
201 202 1
201 229 3
202 203 4
202 230 1
203 204 4
203 231 3
204 205 3
204 232 1
205 206 2
205 233 5
206 207 5
206 234 1
207 208 3
207 235 5
208 209 2
208 236 4
209 210 4
209 237 3
210 211 3
210 238 4
211 212 5
211 239 2
212 213 4
212 240 1
213 214 1
213 241 1
214 215 5
214 242 5
215 216 1
215 243 3
216 217 4
216 244 1
217 218 1
217 245 3
218 219 5
218 246 1
219 220 1
219 247 2
220 221 1
220 248 2
221 222 4
221 249 1
222 223 2
222 250 2
223 224 3
223 251 4
224 252 5
225 226 5
225 253 5
226 227 4
226 254 5
227 228 3
227 255 5
228 229 1
228 256 1
229 230 3
229 257 4
230 231 3
230 258 2
231 232 5
231 259 4
232 233 4
232 260 1
233 234 5
233 261 4
234 235 4
234 262 3
235 236 3
235 263 3
236 237 5
236 264 1
237 238 2
237 265 2
238 239 5
238 266 5
239 240 3
239 267 1
240 241 2
240 268 5
241 242 3
241 269 5
242 243 4
242 270 5
243 244 4
243 271 3
244 245 2
244 272 1
245 246 2
245 273 1
246 247 3
246 274 5
247 248 1
247 275 1
248 249 3
248 276 3
249 250 3
249 277 1
250 251 1
250 278 3
251 252 4
251 279 4
252 280 2
253 254 1
253 281 2
254 255 4
254 282 5
255 256 1
255 283 3
256 257 5
256 284 3
257 258 4
257 285 2
258 259 4
258 286 3
259 260 5
259 287 1
260 261 1
260 288 3
261 262 1
261 289 4
262 263 5
262 290 5
263 264 3
263 291 1
264 265 4
264 292 3
265 266 2
265 293 3
266 267 2
266 294 2
267 268 1
267 295 1
268 269 2
268 296 2
269 270 3
269 297 2
270 271 3
270 298 2
271 272 5
271 299 3
272 273 1
272 300 1
273 274 3
273 301 2
274 275 1
274 302 3
275 276 4
275 303 4
276 277 1
276 304 1
277 278 3
277 305 3
278 279 2
278 306 3
279 280 1
279 307 5
280 308 4
281 282 2
281 309 1
282 283 5
282 310 1
283 284 5
283 311 5
284 285 5
284 312 1
285 286 2
285 313 5
286 287 2
286 314 4
287 288 4
287 315 2
288 289 2
288 316 2
289 290 1
289 317 3
290 291 3
290 318 3
291 292 5
291 319 1
292 293 1
292 320 5
293 294 5
293 321 2
294 295 5
294 322 5
295 296 2
295 323 5
296 297 5
296 324 5
297 298 5
297 325 3
298 299 3
298 326 5
299 300 2
299 327 2
300 301 5
300 328 2
301 302 5
301 329 3
302 303 5
302 330 2
303 304 1
303 331 4
304 305 4
304 332 5
305 306 1
305 333 1
306 307 2
306 334 5
307 308 2
307 335 4
308 336 2
309 310 2
309 337 4
310 311 1
310 338 2
311 312 1
311 339 5
312 313 4
312 340 5
313 314 4
313 341 3
314 315 2
314 342 1
315 316 1
315 343 5
316 317 4
316 344 4
317 318 5
317 345 5
318 319 1
318 346 3
319 320 2
319 347 2
320 321 3
320 348 2
321 322 5
321 349 5
322 323 4
322 350 5
323 324 4
323 351 2
324 325 1
324 352 5
325 326 3
325 353 4
326 327 4
326 354 1
327 328 3
327 355 4
328 329 4
328 356 4
329 330 5
329 357 3
330 331 1
330 358 1
331 332 5
331 359 4
332 333 3
332 360 1
333 334 1
333 361 2
334 335 3
334 362 1
335 336 4
335 363 1
336 364 2
337 338 2
337 365 3
338 339 2
338 366 2
339 340 5
339 367 1
340 341 5
340 368 1
341 342 2
341 369 4
342 343 1
342 370 2
343 344 2
343 371 3
344 345 5
344 372 1
345 346 3
345 373 5
346 347 5
346 374 5
347 348 2
347 375 3
348 349 1
348 376 4
349 350 4
349 377 3
350 351 1
350 378 1
351 352 3
351 379 4
352 353 3
352 380 5
353 354 1
353 381 5
354 355 2
354 382 3
355 356 3
355 383 1
356 357 3
356 384 1
357 358 3
357 385 3
358 359 5
358 386 3
359 360 3
359 387 5
360 361 1
360 388 1
361 362 3
361 389 4
362 363 5
362 390 1
363 364 2
363 391 4
364 392 2
365 366 2
365 393 2
366 367 1
366 394 3
367 368 5
367 395 4
368 369 4
368 396 3
369 370 1
369 397 1
370 371 5
370 398 1
371 372 2
371 399 5
372 373 2
372 400 2
373 374 4
373 401 1
374 375 3
374 402 2
375 376 3
375 403 3
376 377 5
376 404 5
377 378 4
377 405 3
378 379 5
378 406 5
379 380 2
379 407 3
380 381 5
380 408 5
381 382 2
381 409 4
382 383 3
382 410 5
383 384 4
383 411 1
384 385 3
384 412 5
385 386 1
385 413 3
386 387 3
386 414 1
387 388 2
387 415 3
388 389 5
388 416 3
389 390 5
389 417 1
390 391 1
390 418 3
391 392 5
391 419 2
392 420 4
393 394 3
393 421 5
394 395 1
394 422 3
395 396 4
395 423 5
396 397 2
396 424 3
397 398 1
397 425 3
398 399 5
398 426 5
399 400 1
399 427 1
400 401 4
400 428 1
401 402 2
401 429 5
402 403 3
402 430 5
403 404 3
403 431 3
404 405 2
404 432 1
405 406 5
405 433 2
406 407 1
406 434 3
407 408 5
407 435 4
408 409 1
408 436 2
409 410 4
409 437 4
410 411 2
410 438 5
411 412 4
411 439 1
412 413 2
412 440 5
413 414 3
413 441 4
414 415 4
414 442 2
415 416 1
415 443 3
416 417 3
416 444 4
417 418 3
417 445 1
418 419 4
418 446 3
419 420 3
419 447 5
420 448 5
421 422 4
421 449 3
422 423 5
422 450 1
423 424 3
423 451 1
424 425 4
424 452 5
425 426 5
425 453 4
426 427 5
426 454 4
427 428 2
427 455 5
428 429 2
428 456 3
429 430 4
429 457 2
430 431 1
430 458 1
431 432 5
431 459 1
432 433 5
432 460 5
433 434 4
433 461 3
434 435 2
434 462 2
435 436 4
435 463 3
436 437 4
436 464 3
437 438 1
437 465 5
438 439 3
438 466 3
439 440 1
439 467 1
440 441 1
440 468 3
441 442 1
441 469 2
442 443 4
442 470 4
443 444 3
443 471 1
444 445 5
444 472 5
445 446 5
445 473 1
446 447 5
446 474 1
447 448 3
447 475 2
448 476 5
449 450 5
449 477 2
450 451 4
450 478 3
451 452 5
451 479 2
452 453 3
452 480 5
453 454 3
453 481 1
454 455 4
454 482 4
455 456 5
455 483 1
456 457 4
456 484 4
457 458 3
457 485 4
458 459 4
458 486 1
459 460 2
459 487 2
460 461 4
460 488 4
461 462 2
461 489 1
462 463 3
462 490 3
463 464 5
463 491 1
464 465 5
464 492 4
465 466 3
465 493 3
466 467 1
466 494 4
467 468 4
467 495 1
468 469 5
468 496 3
469 470 2
469 497 4
470 471 4
470 498 4
471 472 5
471 499 2
472 473 4
472 500 1
473 474 5
473 501 2
474 475 5
474 502 1
475 476 3
475 503 2
476 504 4
477 478 1
477 505 1
478 479 5
478 506 3
479 480 5
479 507 4
480 481 3
480 508 3
481 482 1
481 509 5
482 483 3
482 510 1
483 484 4
483 511 5
484 485 5
484 512 1
485 486 2
485 513 1
486 487 1
486 514 4
487 488 3
487 515 2
488 489 2
488 516 3
489 490 5
489 517 2
490 491 1
490 518 4
491 492 2
491 519 1
492 493 5
492 520 5
493 494 5
493 521 3
494 495 5
494 522 4
495 496 5
495 523 4
496 497 1
496 524 4
497 498 3
497 525 2
498 499 3
498 526 4
499 500 4
499 527 2
500 501 2
500 528 4
501 502 4
501 529 3
502 503 3
502 530 2
503 504 5
503 531 1
504 532 5
505 506 2
505 533 1
506 507 3
506 534 2
507 508 2
507 535 3
508 509 1
508 536 4
509 510 1
509 537 4
510 511 1
510 538 1
511 512 2
511 539 3
512 513 5
512 540 5
513 514 3
513 541 1
514 515 5
514 542 3
515 516 1
515 543 1
516 517 3
516 544 1
517 518 3
517 545 3
518 519 3
518 546 2
519 520 3
519 547 5
520 521 1
520 548 1
521 522 1
521 549 2
522 523 4
522 550 3
523 524 4
523 551 5
524 525 1
524 552 2
525 526 4
525 553 4
526 527 1
526 554 4
527 528 3
527 555 1
528 529 3
528 556 4
529 530 2
529 557 3
530 531 4
530 558 3
531 532 3
531 559 2
532 560 4
533 534 5
533 561 5
534 535 3
534 562 3
535 536 2
535 563 4
536 537 2
536 564 4
537 538 3
537 565 5
538 539 3
538 566 4
539 540 4
539 567 1
540 541 5
540 568 3
541 542 5
541 569 2
542 543 5
542 570 3
543 544 4
543 571 5
544 545 3
544 572 1
545 546 5
545 573 3
546 547 5
546 574 1
547 548 2
547 575 2
548 549 5
548 576 3
549 550 2
549 577 2
550 551 4
550 578 2
551 552 5
551 579 2
552 553 5
552 580 2
553 554 1
553 581 5
554 555 1
554 582 2
555 556 3
555 583 3
556 557 1
556 584 5
557 558 3
557 585 1
558 559 5
558 586 3
559 560 2
559 587 5
560 588 3
561 562 3
561 589 4
562 563 4
562 590 1
563 564 1
563 591 3
564 565 3
564 592 3
565 566 5
565 593 5
566 567 4
566 594 3
567 568 2
567 595 2
568 569 5
568 596 2
569 570 5
569 597 3
570 571 5
570 598 2
571 572 5
571 599 5
572 573 3
572 600 3
573 574 3
573 601 1
574 575 5
574 602 4
575 576 2
575 603 5
576 577 4
576 604 2
577 578 1
577 605 5
578 579 1
578 606 1
579 580 4
579 607 3
580 581 1
580 608 4
581 582 4
581 609 4
582 583 4
582 610 1
583 584 3
583 611 2
584 585 3
584 612 3
585 586 5
585 613 2
586 587 5
586 614 2
587 588 1
587 615 3
588 616 1
589 590 4
589 617 4
590 591 2
590 618 3
591 592 1
591 619 1
592 593 5
592 620 3
593 594 5
593 621 4
594 595 1
594 622 4
595 596 5
595 623 3
596 597 2
596 624 4
597 598 1
597 625 1
598 599 4
598 626 2
599 600 4
599 627 5
600 601 1
600 628 4
601 602 3
601 629 3
602 603 5
602 630 3
603 604 3
603 631 2
604 605 2
604 632 4
605 606 4
605 633 1
606 607 3
606 634 4
607 608 5
607 635 4
608 609 4
608 636 3
609 610 3
609 637 4
610 611 5
610 638 2
611 612 3
611 639 2
612 613 1
612 640 1
613 614 4
613 641 3
614 615 4
614 642 4
615 616 2
615 643 5
616 644 3
617 618 3
617 645 2
618 619 1
618 646 5
619 620 4
619 647 5
620 621 4
620 648 3
621 622 2
621 649 5
622 623 5
622 650 4
623 624 4
623 651 2
624 625 3
624 652 1
625 626 2
625 653 3
626 627 3
626 654 5
627 628 1
627 655 5
628 629 4
628 656 2
629 630 1
629 657 5
630 631 1
630 658 3
631 632 1
631 659 4
632 633 5
632 660 5
633 634 1
633 661 4
634 635 2
634 662 2
635 636 1
635 663 1
636 637 5
636 664 3
637 638 5
637 665 3
638 639 5
638 666 5
639 640 1
639 667 5
640 641 4
640 668 4
641 642 5
641 669 2
642 643 4
642 670 2
643 644 3
643 671 1
644 672 2
645 646 4
645 673 3
646 647 2
646 674 4
647 648 3
647 675 1
648 649 2
648 676 2
649 650 2
649 677 4
650 651 4
650 678 4
651 652 3
651 679 3
652 653 1
652 680 3
653 654 4
653 681 4
654 655 5
654 682 4
655 656 1
655 683 3
656 657 2
656 684 3
657 658 5
657 685 1
658 659 4
658 686 4
659 660 1
659 687 1
660 661 1
660 688 4
661 662 5
661 689 1
662 663 3
662 690 1
663 664 5
663 691 1
664 665 4
664 692 1
665 666 2
665 693 4
666 667 4
666 694 2
667 668 5
667 695 2
668 669 1
668 696 3
669 670 5
669 697 2
670 671 1
670 698 1
671 672 1
671 699 2
672 700 3
673 674 5
673 701 2
674 675 3
674 702 3
675 676 2
675 703 2
676 677 5
676 704 5
677 678 3
677 705 3
678 679 5
678 706 5
679 680 4
679 707 4
680 681 5
680 708 4
681 682 5
681 709 1
682 683 3
682 710 1
683 684 3
683 711 1
684 685 3
684 712 1
685 686 4
685 713 4
686 687 3
686 714 3
687 688 5
687 715 3
688 689 3
688 716 5
689 690 3
689 717 4
690 691 5
690 718 2
691 692 3
691 719 2
692 693 3
692 720 2
693 694 2
693 721 5
694 695 3
694 722 5
695 696 4
695 723 4
696 697 2
696 724 3
697 698 5
697 725 3
698 699 4
698 726 4
699 700 4
699 727 1
700 728 2
701 702 2
701 729 5
702 703 1
702 730 5
703 704 5
703 731 5
704 705 4
704 732 3
705 706 3
705 733 5
706 707 4
706 734 3
707 708 3
707 735 1
708 709 3
708 736 1
709 710 1
709 737 4
710 711 1
710 738 3
711 712 2
711 739 3
712 713 4
712 740 1
713 714 1
713 741 1
714 715 1
714 742 1
715 716 3
715 743 5
716 717 1
716 744 5
717 718 1
717 745 4
718 719 3
718 746 1
719 720 2
719 747 2
720 721 3
720 748 5
721 722 5
721 749 5
722 723 3
722 750 1
723 724 3
723 751 5
724 725 2
724 752 4
725 726 1
725 753 4
726 727 2
726 754 2
727 728 5
727 755 2
728 756 5
729 730 1
729 757 2
730 731 3
730 758 1
731 732 4
731 759 1
732 733 4
732 760 2
733 734 2
733 761 2
734 735 5
734 762 3
735 736 4
735 763 2
736 737 2
736 764 1
737 738 4
737 765 2
738 739 5
738 766 3
739 740 1
739 767 5
740 741 2
740 768 3
741 742 3
741 769 2
742 743 1
742 770 1
743 744 4
743 771 2
744 745 3
744 772 5
745 746 4
745 773 5
746 747 5
746 774 1
747 748 1
747 775 2
748 749 3
748 776 4
749 750 3
749 777 3
750 751 1
750 778 4
751 752 4
751 779 4
752 753 5
752 780 4
753 754 2
753 781 2
754 755 4
754 782 1
755 756 2
755 783 5
756 784 5
757 758 3
758 759 5
759 760 4
760 761 2
761 762 1
762 763 3
763 764 2
764 765 3
765 766 3
766 767 2
767 768 1
768 769 1
769 770 1
770 771 1
771 772 3
772 773 4
773 774 3
774 775 3
775 776 5
776 777 3
777 778 4
778 779 3
779 780 2
780 781 4
781 782 4
782 783 5
783 784 3
